param d (tr) : 1 2 3 4 :=
1	220	598	262	113
2	646	771	743	324
3	1087	1466	1278	848
4	1292	2146	1531	1004
5	1540	2538	1665	1210
6	2304	3339	3240	1998
7	5242	7705	6776	3466
8	5511	7327	7623	4184
9	3455	5001	4428	2861
10	1507	2266	1962	864
11	765	1436	1011	1091
12	431	907	981	1037
;

param IO := 
1 2820	
2 640	
3 7250	
4 5750
;

param ss := 
1	518
2	767
3	680
4	411
;



